p wcnf 135 202 203 
1 -106 8 0 
1 40 -121 0 
1 -105 -132 0 
1 120 -132 0 
1 77 -99 0 
1 -82 -59 0 
1 135 21 0 
1 -28 -6 0 
1 95 3 0 
1 28 -108 0 
1 -47 12 0 
1 54 38 0 
1 -85 -87 0 
1 -70 69 0 
1 24 30 0 
1 119 75 0 
1 -1 -65 0 
1 -130 91 0 
1 100 -108 0 
1 -16 116 0 
1 36 -69 0 
1 -44 -62 0 
1 -115 -63 0 
1 -93 -40 0 
1 35 -75 0 
1 133 17 0 
1 126 53 0 
1 73 44 0 
1 88 -126 0 
1 101 26 0 
1 20 82 0 
1 -82 108 0 
1 -99 -101 0 
1 -100 -116 0 
1 75 16 0 
1 -48 -106 0 
1 -117 -134 0 
1 44 -49 0 
1 -37 46 0 
1 -50 -11 0 
1 -9 77 0 
1 -86 1 0 
1 -69 91 0 
1 -63 1 0 
1 -106 86 0 
1 -126 106 0 
1 91 -64 0 
1 5 -66 0 
1 -96 -66 0 
1 85 100 0 
1 76 55 0 
1 -116 27 0 
1 -31 -3 0 
1 -53 -68 0 
1 -5 45 0 
1 -7 21 0 
1 72 131 0 
1 3 20 0 
1 115 15 0 
1 -124 96 0 
1 121 118 0 
1 -132 36 0 
1 -70 86 0 
1 67 -83 0 
1 40 25 0 
1 -135 -17 0 
1 122 48 0 
1 14 -21 0 
1 -38 90 0 
1 88 72 0 
1 15 7 0 
1 44 -100 0 
1 -117 -98 0 
1 -104 -36 0 
1 74 -61 0 
1 84 -48 0 
1 70 -77 0 
1 -111 -61 0 
1 -62 18 0 
1 -120 13 0 
1 50 -125 0 
1 111 -51 0 
1 -55 -74 0 
1 -99 -31 0 
1 -74 -69 0 
1 112 91 0 
1 32 74 0 
1 115 75 0 
1 11 -59 0 
1 -17 -52 0 
1 108 -56 0 
1 134 131 0 
1 -79 35 0 
1 23 80 0 
1 -15 77 0 
1 -58 36 0 
1 -57 112 0 
1 27 -46 0 
1 113 127 0 
1 74 -80 0 
1 37 68 0 
1 107 -119 0 
1 100 -116 0 
1 127 95 0 
1 107 -16 0 
1 -48 -78 0 
1 -81 105 0 
1 80 -84 0 
1 -52 3 0 
1 69 -79 0 
1 131 -104 0 
1 1 -52 0 
1 -78 46 0 
1 110 -102 0 
1 -69 -80 0 
1 113 38 0 
1 -85 130 0 
1 50 101 0 
1 -126 125 0 
1 -91 -128 0 
1 112 -94 0 
1 -9 119 0 
1 -93 63 0 
1 63 -37 0 
1 103 63 0 
1 68 -7 0 
1 97 117 0 
1 -116 -9 0 
1 124 97 0 
1 12 64 0 
1 -105 88 0 
1 100 -16 0 
1 25 111 0 
1 19 3 0 
1 116 -125 0 
1 103 89 0 
1 -18 -84 0 
1 109 103 0 
1 -2 117 0 
1 86 -109 0 
1 -100 60 0 
1 84 -124 0 
1 53 -56 0 
1 111 96 0 
1 -35 -33 0 
1 -5 -99 0 
1 97 -66 0 
1 72 -77 0 
1 -15 -97 0 
1 -3 29 0 
1 108 -104 0 
1 10 26 0 
1 -80 -85 0 
1 9 73 0 
1 74 23 0 
1 -53 4 0 
1 126 -95 0 
1 134 -28 0 
1 115 -22 0 
1 -135 -84 0 
1 -8 2 0 
1 -74 57 0 
1 -2 10 0 
1 99 58 0 
1 -91 110 0 
1 -86 111 0 
1 -90 -83 0 
1 -30 -95 0 
1 119 97 0 
1 25 132 0 
1 34 -103 0 
1 42 28 0 
1 102 4 0 
1 -133 -8 0 
1 46 8 0 
1 109 47 0 
1 -81 34 0 
1 -42 69 0 
1 -21 -110 0 
1 -58 -76 0 
1 20 -12 0 
1 72 97 0 
1 65 110 0 
1 -87 -39 0 
1 -127 119 0 
1 135 -19 0 
1 -17 62 0 
1 46 134 0 
1 -79 31 0 
1 65 -113 0 
1 6 -113 0 
1 -62 26 0 
1 86 -13 0 
1 87 -26 0 
1 116 -1 0 
1 -53 83 0 
1 -41 56 0 
1 110 -101 0 
1 90 86 0 
1 96 -51 0 
1 48 121 0 
1 -18 109 0 
